NAME : 0
COMMENT : CVRP Instance
TYPE : CVRP
DIMENSION : 548
EDGE_WEIGHT_TYPE : EUC_2D
CAPACITY : 11
NODE_COORD_SECTION
1	0.0	0.0
2	221.0	542.0
3	320.0	456.0
4	576.0	827.0
5	679.0	994.0
6	371.0	461.0
7	961.0	844.0
8	986.0	379.0
9	175.0	540.0
10	126.0	517.0
11	329.0	626.0
12	477.0	890.0
13	191.0	356.0
14	584.0	917.0
15	308.0	653.0
16	0.0	7.0
17	273.0	302.0
18	672.0	381.0
19	235.0	415.0
20	583.0	149.0
21	672.0	124.0
22	644.0	646.0
23	400.0	544.0
24	832.0	999.0
25	842.0	964.0
26	582.0	965.0
27	544.0	311.0
28	429.0	2.0
29	939.0	849.0
30	898.0	605.0
31	363.0	130.0
32	639.0	874.0
33	323.0	201.0
34	829.0	350.0
35	7.0	53.0
36	801.0	92.0
37	57.0	330.0
38	943.0	0.0
39	579.0	275.0
40	833.0	402.0
41	408.0	940.0
42	635.0	871.0
43	631.0	630.0
44	733.0	313.0
45	344.0	619.0
46	628.0	291.0
47	674.0	92.0
48	74.0	602.0
49	38.0	354.0
50	473.0	107.0
51	668.0	279.0
52	510.0	811.0
53	366.0	16.0
54	49.0	182.0
55	528.0	946.0
56	271.0	745.0
57	405.0	872.0
58	65.0	893.0
59	622.0	488.0
60	668.0	978.0
61	939.0	73.0
62	556.0	632.0
63	270.0	446.0
64	586.0	348.0
65	951.0	167.0
66	385.0	308.0
67	247.0	997.0
68	992.0	460.0
69	128.0	590.0
70	746.0	847.0
71	279.0	459.0
72	428.0	183.0
73	364.0	167.0
74	656.0	687.0
75	547.0	792.0
76	517.0	152.0
77	252.0	618.0
78	464.0	284.0
79	184.0	96.0
80	457.0	269.0
81	590.0	47.0
82	348.0	609.0
83	777.0	112.0
84	528.0	198.0
85	877.0	457.0
86	812.0	650.0
87	864.0	723.0
88	584.0	875.0
89	817.0	233.0
90	186.0	909.0
91	439.0	447.0
92	560.0	994.0
93	818.0	658.0
94	134.0	903.0
95	447.0	951.0
96	969.0	519.0
97	488.0	401.0
98	142.0	666.0
99	287.0	534.0
100	399.0	181.0
101	141.0	22.0
102	29.0	248.0
103	313.0	643.0
104	20.0	974.0
105	294.0	475.0
106	439.0	214.0
107	327.0	361.0
108	79.0	657.0
109	165.0	601.0
110	345.0	144.0
111	90.0	914.0
112	400.0	256.0
113	177.0	633.0
114	549.0	135.0
115	812.0	166.0
116	887.0	565.0
117	455.0	695.0
118	180.0	298.0
119	658.0	126.0
120	18.0	638.0
121	327.0	299.0
122	195.0	261.0
123	245.0	439.0
124	355.0	299.0
125	827.0	854.0
126	881.0	666.0
127	144.0	893.0
128	34.0	637.0
129	187.0	150.0
130	350.0	673.0
131	380.0	917.0
132	271.0	505.0
133	347.0	879.0
134	45.0	456.0
135	930.0	78.0
136	860.0	22.0
137	448.0	112.0
138	236.0	704.0
139	222.0	587.0
140	670.0	76.0
141	333.0	821.0
142	521.0	123.0
143	642.0	795.0
144	152.0	816.0
145	50.0	360.0
146	325.0	936.0
147	24.0	690.0
148	836.0	158.0
149	351.0	981.0
150	405.0	377.0
151	159.0	405.0
152	825.0	285.0
153	187.0	320.0
154	342.0	200.0
155	290.0	713.0
156	304.0	144.0
157	216.0	909.0
158	46.0	173.0
159	613.0	524.0
160	35.0	950.0
161	298.0	667.0
162	257.0	579.0
163	775.0	393.0
164	860.0	681.0
165	996.0	407.0
166	42.0	719.0
167	379.0	14.0
168	195.0	581.0
169	75.0	328.0
170	295.0	405.0
171	481.0	721.0
172	539.0	661.0
173	6.0	525.0
174	239.0	471.0
175	88.0	989.0
176	965.0	196.0
177	460.0	479.0
178	927.0	260.0
179	663.0	933.0
180	626.0	229.0
181	814.0	564.0
182	737.0	136.0
183	620.0	811.0
184	253.0	65.0
185	645.0	544.0
186	877.0	977.0
187	825.0	518.0
188	656.0	780.0
189	235.0	74.0
190	881.0	673.0
191	101.0	93.0
192	221.0	710.0
193	69.0	200.0
194	115.0	635.0
195	721.0	215.0
196	414.0	959.0
197	336.0	858.0
198	270.0	287.0
199	912.0	701.0
200	278.0	898.0
201	426.0	373.0
202	867.0	569.0
203	354.0	11.0
204	937.0	660.0
205	434.0	965.0
206	753.0	436.0
207	681.0	746.0
208	86.0	648.0
209	656.0	239.0
210	604.0	359.0
211	979.0	146.0
212	507.0	27.0
213	94.0	695.0
214	424.0	827.0
215	287.0	592.0
216	554.0	230.0
217	952.0	222.0
218	48.0	840.0
219	99.0	106.0
220	661.0	456.0
221	133.0	601.0
222	635.0	416.0
223	860.0	852.0
224	842.0	165.0
225	752.0	0.0
226	173.0	90.0
227	469.0	632.0
228	184.0	590.0
229	619.0	482.0
230	981.0	411.0
231	778.0	389.0
232	359.0	222.0
233	751.0	498.0
234	201.0	444.0
235	91.0	710.0
236	111.0	324.0
237	867.0	389.0
238	309.0	269.0
239	669.0	317.0
240	768.0	421.0
241	889.0	891.0
242	605.0	483.0
243	221.0	579.0
244	729.0	804.0
245	442.0	624.0
246	719.0	697.0
247	413.0	1000.0
248	977.0	29.0
249	356.0	605.0
250	107.0	39.0
251	362.0	727.0
252	570.0	421.0
253	162.0	737.0
254	557.0	652.0
255	139.0	48.0
256	145.0	568.0
257	596.0	316.0
258	681.0	194.0
259	268.0	893.0
260	420.0	824.0
261	94.0	529.0
262	422.0	341.0
263	226.0	328.0
264	687.0	807.0
265	299.0	951.0
266	549.0	281.0
267	944.0	64.0
268	316.0	904.0
269	554.0	49.0
270	160.0	221.0
271	302.0	952.0
272	258.0	765.0
273	406.0	684.0
274	182.0	881.0
275	641.0	481.0
276	541.0	807.0
277	107.0	602.0
278	870.0	999.0
279	247.0	282.0
280	771.0	712.0
281	109.0	942.0
282	305.0	827.0
283	865.0	629.0
284	632.0	928.0
285	571.0	734.0
286	899.0	632.0
287	189.0	934.0
288	385.0	166.0
289	851.0	399.0
290	890.0	198.0
291	370.0	248.0
292	372.0	910.0
293	11.0	248.0
294	845.0	326.0
295	508.0	769.0
296	511.0	900.0
297	320.0	984.0
298	158.0	330.0
299	159.0	327.0
300	798.0	648.0
301	746.0	195.0
302	555.0	541.0
303	832.0	900.0
304	809.0	931.0
305	460.0	869.0
306	585.0	804.0
307	487.0	102.0
308	194.0	288.0
309	340.0	877.0
310	127.0	981.0
311	39.0	692.0
312	187.0	528.0
313	462.0	482.0
314	890.0	450.0
315	857.0	64.0
316	96.0	223.0
317	610.0	842.0
318	910.0	604.0
319	260.0	757.0
320	809.0	211.0
321	767.0	499.0
322	48.0	352.0
323	23.0	950.0
324	289.0	98.0
325	622.0	891.0
326	499.0	618.0
327	873.0	960.0
328	82.0	752.0
329	65.0	845.0
330	281.0	842.0
331	990.0	747.0
332	809.0	808.0
333	693.0	76.0
334	744.0	478.0
335	506.0	411.0
336	668.0	167.0
337	301.0	696.0
338	61.0	500.0
339	9.0	695.0
340	939.0	496.0
341	390.0	699.0
342	741.0	894.0
343	39.0	477.0
344	476.0	728.0
345	663.0	477.0
346	112.0	160.0
347	588.0	281.0
348	215.0	559.0
349	528.0	309.0
350	839.0	820.0
351	601.0	769.0
352	668.0	953.0
353	594.0	865.0
354	407.0	905.0
355	478.0	244.0
356	423.0	639.0
357	174.0	707.0
358	635.0	465.0
359	570.0	151.0
360	651.0	612.0
361	785.0	786.0
362	166.0	64.0
363	684.0	574.0
364	598.0	632.0
365	645.0	944.0
366	976.0	284.0
367	576.0	737.0
368	87.0	725.0
369	177.0	414.0
370	865.0	221.0
371	459.0	506.0
372	23.0	683.0
373	507.0	320.0
374	961.0	987.0
375	497.0	889.0
376	888.0	561.0
377	963.0	175.0
378	223.0	208.0
379	308.0	530.0
380	237.0	184.0
381	576.0	387.0
382	937.0	529.0
383	463.0	219.0
384	210.0	641.0
385	582.0	748.0
386	215.0	107.0
387	985.0	385.0
388	22.0	783.0
389	920.0	945.0
390	502.0	117.0
391	851.0	594.0
392	467.0	732.0
393	728.0	54.0
394	64.0	249.0
395	492.0	57.0
396	415.0	372.0
397	852.0	45.0
398	503.0	209.0
399	292.0	125.0
400	316.0	855.0
401	340.0	273.0
402	242.0	217.0
403	85.0	788.0
404	700.0	96.0
405	942.0	989.0
406	37.0	511.0
407	663.0	175.0
408	670.0	279.0
409	611.0	829.0
410	471.0	843.0
411	268.0	61.0
412	412.0	350.0
413	4.0	325.0
414	454.0	981.0
415	94.0	359.0
416	688.0	524.0
417	982.0	397.0
418	725.0	208.0
419	793.0	620.0
420	337.0	779.0
421	106.0	856.0
422	350.0	826.0
423	965.0	538.0
424	780.0	360.0
425	144.0	904.0
426	225.0	646.0
427	666.0	449.0
428	510.0	276.0
429	564.0	632.0
430	573.0	501.0
431	903.0	827.0
432	605.0	806.0
433	38.0	525.0
434	445.0	738.0
435	138.0	788.0
436	216.0	988.0
437	944.0	955.0
438	220.0	716.0
439	788.0	589.0
440	75.0	130.0
441	858.0	686.0
442	107.0	314.0
443	717.0	125.0
444	991.0	306.0
445	62.0	373.0
446	641.0	426.0
447	747.0	436.0
448	350.0	855.0
449	42.0	62.0
450	184.0	460.0
451	153.0	199.0
452	618.0	878.0
453	986.0	690.0
454	430.0	839.0
455	161.0	233.0
456	840.0	747.0
457	284.0	582.0
458	899.0	505.0
459	453.0	998.0
460	134.0	596.0
461	30.0	955.0
462	437.0	412.0
463	660.0	92.0
464	203.0	828.0
465	524.0	418.0
466	723.0	31.0
467	869.0	759.0
468	824.0	606.0
469	764.0	469.0
470	760.0	852.0
471	119.0	378.0
472	352.0	365.0
473	954.0	998.0
474	381.0	873.0
475	905.0	972.0
476	222.0	302.0
477	0.0	783.0
478	746.0	114.0
479	670.0	702.0
480	447.0	881.0
481	14.0	996.0
482	844.0	110.0
483	315.0	373.0
484	115.0	329.0
485	808.0	697.0
486	992.0	409.0
487	692.0	929.0
488	897.0	142.0
489	397.0	338.0
490	334.0	75.0
491	104.0	954.0
492	537.0	581.0
493	502.0	262.0
494	346.0	190.0
495	812.0	171.0
496	361.0	170.0
497	44.0	202.0
498	326.0	351.0
499	525.0	950.0
500	773.0	202.0
501	650.0	781.0
502	906.0	167.0
503	910.0	793.0
504	752.0	234.0
505	147.0	12.0
506	542.0	768.0
507	82.0	850.0
508	358.0	588.0
509	68.0	802.0
510	19.0	296.0
511	114.0	406.0
512	228.0	854.0
513	147.0	444.0
514	954.0	410.0
515	529.0	392.0
516	77.0	383.0
517	822.0	126.0
518	284.0	784.0
519	804.0	876.0
520	200.0	797.0
521	735.0	425.0
522	784.0	608.0
523	870.0	566.0
524	968.0	481.0
525	228.0	806.0
526	548.0	87.0
527	609.0	314.0
528	328.0	85.0
529	852.0	128.0
530	505.0	944.0
531	358.0	609.0
532	311.0	26.0
533	855.0	140.0
534	909.0	915.0
535	407.0	84.0
536	523.0	987.0
537	690.0	982.0
538	841.0	250.0
539	499.0	9.0
540	646.0	414.0
541	516.0	682.0
542	713.0	221.0
543	328.0	800.0
544	944.0	22.0
545	691.0	660.0
546	763.0	609.0
547	44.0	506.0
548	756.0	289.0
DEMAND_SECTION
1	0
2	1
3	1
4	1
5	1
6	1
7	1
8	1
9	1
10	1
11	1
12	1
13	1
14	1
15	1
16	1
17	1
18	1
19	1
20	1
21	1
22	1
23	1
24	1
25	1
26	1
27	1
28	1
29	1
30	1
31	1
32	1
33	1
34	1
35	1
36	1
37	1
38	1
39	1
40	1
41	1
42	1
43	1
44	1
45	1
46	1
47	1
48	1
49	1
50	1
51	1
52	1
53	1
54	1
55	1
56	1
57	1
58	1
59	1
60	1
61	1
62	1
63	1
64	1
65	1
66	1
67	1
68	1
69	1
70	1
71	1
72	1
73	1
74	1
75	1
76	1
77	1
78	1
79	1
80	1
81	1
82	1
83	1
84	1
85	1
86	1
87	1
88	1
89	1
90	1
91	1
92	1
93	1
94	1
95	1
96	1
97	1
98	1
99	1
100	1
101	1
102	1
103	1
104	1
105	1
106	1
107	1
108	1
109	1
110	1
111	1
112	1
113	1
114	1
115	1
116	1
117	1
118	1
119	1
120	1
121	1
122	1
123	1
124	1
125	1
126	1
127	1
128	1
129	1
130	1
131	1
132	1
133	1
134	1
135	1
136	1
137	1
138	1
139	1
140	1
141	1
142	1
143	1
144	1
145	1
146	1
147	1
148	1
149	1
150	1
151	1
152	1
153	1
154	1
155	1
156	1
157	1
158	1
159	1
160	1
161	1
162	1
163	1
164	1
165	1
166	1
167	1
168	1
169	1
170	1
171	1
172	1
173	1
174	1
175	1
176	1
177	1
178	1
179	1
180	1
181	1
182	1
183	1
184	1
185	1
186	1
187	1
188	1
189	1
190	1
191	1
192	1
193	1
194	1
195	1
196	1
197	1
198	1
199	1
200	1
201	1
202	1
203	1
204	1
205	1
206	1
207	1
208	1
209	1
210	1
211	1
212	1
213	1
214	1
215	1
216	1
217	1
218	1
219	1
220	1
221	1
222	1
223	1
224	1
225	1
226	1
227	1
228	1
229	1
230	1
231	1
232	1
233	1
234	1
235	1
236	1
237	1
238	1
239	1
240	1
241	1
242	1
243	1
244	1
245	1
246	1
247	1
248	1
249	1
250	1
251	1
252	1
253	1
254	1
255	1
256	1
257	1
258	1
259	1
260	1
261	1
262	1
263	1
264	1
265	1
266	1
267	1
268	1
269	1
270	1
271	1
272	1
273	1
274	1
275	1
276	1
277	1
278	1
279	1
280	1
281	1
282	1
283	1
284	1
285	1
286	1
287	1
288	1
289	1
290	1
291	1
292	1
293	1
294	1
295	1
296	1
297	1
298	1
299	1
300	1
301	1
302	1
303	1
304	1
305	1
306	1
307	1
308	1
309	1
310	1
311	1
312	1
313	1
314	1
315	1
316	1
317	1
318	1
319	1
320	1
321	1
322	1
323	1
324	1
325	1
326	1
327	1
328	1
329	1
330	1
331	1
332	1
333	1
334	1
335	1
336	1
337	1
338	1
339	1
340	1
341	1
342	1
343	1
344	1
345	1
346	1
347	1
348	1
349	1
350	1
351	1
352	1
353	1
354	1
355	1
356	1
357	1
358	1
359	1
360	1
361	1
362	1
363	1
364	1
365	1
366	1
367	1
368	1
369	1
370	1
371	1
372	1
373	1
374	1
375	1
376	1
377	1
378	1
379	1
380	1
381	1
382	1
383	1
384	1
385	1
386	1
387	1
388	1
389	1
390	1
391	1
392	1
393	1
394	1
395	1
396	1
397	1
398	1
399	1
400	1
401	1
402	1
403	1
404	1
405	1
406	1
407	1
408	1
409	1
410	1
411	1
412	1
413	1
414	1
415	1
416	1
417	1
418	1
419	1
420	1
421	1
422	1
423	1
424	1
425	1
426	1
427	1
428	1
429	1
430	1
431	1
432	1
433	1
434	1
435	1
436	1
437	1
438	1
439	1
440	1
441	1
442	1
443	1
444	1
445	1
446	1
447	1
448	1
449	1
450	1
451	1
452	1
453	1
454	1
455	1
456	1
457	1
458	1
459	1
460	1
461	1
462	1
463	1
464	1
465	1
466	1
467	1
468	1
469	1
470	1
471	1
472	1
473	1
474	1
475	1
476	1
477	1
478	1
479	1
480	1
481	1
482	1
483	1
484	1
485	1
486	1
487	1
488	1
489	1
490	1
491	1
492	1
493	1
494	1
495	1
496	1
497	1
498	1
499	1
500	1
501	1
502	1
503	1
504	1
505	1
506	1
507	1
508	1
509	1
510	1
511	1
512	1
513	1
514	1
515	1
516	1
517	1
518	1
519	1
520	1
521	1
522	1
523	1
524	1
525	1
526	1
527	1
528	1
529	1
530	1
531	1
532	1
533	1
534	1
535	1
536	1
537	1
538	1
539	1
540	1
541	1
542	1
543	1
544	1
545	1
546	1
547	1
548	1
DEPOT_SECTION
1
-1
EOF
